Copyright (C) 2013-2015, Filipe Brandao
Build (method = -2)
  #dp: 13349
  Step-3' Graph: 162 vertices and 5922 arcs (0.02s)
  Step-4' Graph: 160 vertices and 5918 arcs (0.02s)
  #V4/#V3 = 0.99
  #A4/#A3 = 1.00
Ready! (0.02s)
Optimize a model with 272 rows, 5919 columns and 17446 nonzeros
Found heuristic solution: objective 347
Presolve removed 39 rows and 44 columns
Presolve time: 0.03s
Presolved: 233 rows, 5875 columns, 17298 nonzeros
Variable types: 0 continuous, 5875 integer (1250 binary)
Optimize a model with 233 rows, 5875 columns and 17298 nonzeros
Presolved: 233 rows, 5875 columns, 17298 nonzeros

Root barrier log...

Ordering time: 0.00s

Barrier statistics:
 AA' NZ     : 1.124e+04
 Factor NZ  : 1.770e+04 (roughly 3 MBytes of memory)
 Factor Ops : 1.826e+06 (less than 1 second per iteration)
 Threads    : 1

                  Objective                Residual
Iter       Primal          Dual         Primal    Dual     Compl     Time
   0   9.57085337e+03 -5.55184500e+04  5.30e+04 6.74e-02  5.33e+01     0s
   1   2.52052592e+03 -1.86778231e+04  6.60e+03 6.66e-16  7.60e+00     0s
   2   7.72431747e+02 -8.89028879e+03  9.00e+02 2.61e-02  1.54e+00     0s
   3   4.65006874e+02 -1.97748923e+03  1.02e+02 2.96e-03  2.65e-01     0s
   4   3.29097359e+02 -6.39474402e+02  3.52e+01 8.50e-04  9.67e-02     0s
   5   2.89289435e+02 -4.05079296e+02  2.51e+01 5.47e-04  6.76e-02     0s
   6   2.87031316e+02 -3.14812059e+02  2.46e+01 4.40e-04  5.89e-02     0s
   7   2.82625837e+02 -2.74711676e+02  2.38e+01 3.74e-04  5.47e-02     0s
   8   2.35819435e+02 -9.64930063e+01  1.65e+01 6.09e-05  3.25e-02     0s
   9   1.73602426e+02  2.86951342e+00  7.07e+00 7.27e-16  1.60e-02     0s
  10   1.32295086e+02  5.16689501e+01  2.09e+00 6.66e-16  7.20e-03     0s
  11   1.25698132e+02  6.69750235e+01  1.17e+00 8.25e-16  5.16e-03     0s
  12   1.24516261e+02  7.41650533e+01  9.52e-01 1.01e-15  4.40e-03     0s
  13   1.23202938e+02  8.31150171e+01  8.27e-01 8.89e-16  3.49e-03     0s
  14   1.19577070e+02  9.24051928e+01  5.08e-01 9.03e-16  2.35e-03     0s
  15   1.18426055e+02  1.01743332e+02  2.81e-01 8.88e-16  1.43e-03     0s
  16   1.16992567e+02  1.07147343e+02  9.52e-02 7.77e-16  8.38e-04     0s
  17   1.16255931e+02  1.11034153e+02  3.13e-02 1.55e-15  4.43e-04     0s
  18   1.15969790e+02  1.12957802e+02  1.55e-02 6.61e-16  2.55e-04     0s
  19   1.15847099e+02  1.13991036e+02  1.08e-02 6.78e-16  1.57e-04     0s
  20   1.15770428e+02  1.14657495e+02  7.78e-03 8.45e-16  9.44e-05     0s
  21   1.15710597e+02  1.15043649e+02  5.62e-03 8.76e-16  5.66e-05     0s
  22   1.15647383e+02  1.15208422e+02  3.32e-03 1.05e-15  3.72e-05     0s
  23   1.15629779e+02  1.15282294e+02  2.81e-03 1.36e-15  2.95e-05     0s
  24   1.15619830e+02  1.15402234e+02  2.21e-03 1.22e-15  1.85e-05     0s
  25   1.15571873e+02  1.15558345e+02  6.14e-06 7.77e-16  1.15e-06     0s
  26   1.15570006e+02  1.15569977e+02  1.24e-12 9.99e-16  2.39e-09     0s
  27   1.15570000e+02  1.15570000e+02  5.47e-13 8.97e-16  2.44e-15     0s

Barrier solved model in 27 iterations and 0.07 seconds
Optimal objective 1.15570000e+02


Root relaxation: objective 1.155700e+02, 3974 iterations, 0.11 seconds

    Nodes    |    Current Node    |     Objective Bounds      |     Work
 Expl Unexpl |  Obj  Depth IntInf | Incumbent    BestBd   Gap | It/Node Time

     0     0  115.57000    0   57  347.00000  115.57000  66.7%     -    0s
H    0     0                     117.0000000  115.57000  1.22%     -    0s
H    0     0                     116.0000000  115.57000  0.37%     -    0s

Explored 0 nodes (6407 simplex iterations) in 0.40 seconds
Thread count was 1 (of 4 available processors)

Optimal solution found (tolerance 0.00e+00)
Best objective 1.160000000000e+02, best bound 1.160000000000e+02, gap 0.0%
Preprocessing time: 0.03 seconds
Gurobi run time: 0.40 seconds
Total run time: 0.43 seconds
Objective: 116
Solution:
1 x [i=1, i=74]
2 x [i=2, i=73]
1 x [i=2, i=92, i=111]
4 x [i=2, i=93, i=110]
1 x [i=3, i=70]
4 x [i=4, i=69]
1 x [i=5, i=68]
2 x [i=6, i=67]
3 x [i=7, i=66]
1 x [i=7, i=91, i=105]
2 x [i=8, i=65]
2 x [i=9, i=64]
1 x [i=9, i=83, i=112]
1 x [i=10, i=96, i=97]
2 x [i=11, i=85, i=107]
1 x [i=12, i=90, i=101]
1 x [i=13, i=61]
2 x [i=13, i=79, i=112]
3 x [i=14, i=60]
1 x [i=14, i=81, i=109]
2 x [i=15, i=59]
3 x [i=16, i=58]
2 x [i=17, i=57]
1 x [i=17, i=78, i=109]
2 x [i=18, i=56]
1 x [i=18, i=81, i=105]
2 x [i=19, i=78, i=107]
2 x [i=20, i=54]
1 x [i=20, i=87, i=96]
1 x [i=21, i=82, i=101]
2 x [i=22, i=53]
1 x [i=23, i=52]
2 x [i=23, i=81, i=100]
2 x [i=24, i=51]
2 x [i=25, i=50]
1 x [i=25, i=76, i=103]
1 x [i=26, i=48]
1 x [i=27, i=47]
4 x [i=28, i=45]
1 x [i=28, i=63, i=112]
3 x [i=29, i=44]
2 x [i=30, i=43]
2 x [i=30, i=68, i=105]
1 x [i=31, i=42]
2 x [i=32, i=41]
1 x [i=32, i=65, i=106]
1 x [i=32, i=91, i=104, i=106]
2 x [i=33, i=65, i=105]
1 x [i=34, i=40]
1 x [i=34, i=77, i=91]
2 x [i=35, i=39]
2 x [i=36, i=38]
2 x [i=37, i=37]
1 x [i=38, i=65, i=100]
1 x [i=38, i=77, i=87]
2 x [i=39, i=65, i=99]
1 x [i=42, i=62, i=99]
2 x [i=42, i=80, i=80]
1 x [i=44, i=62, i=97]
1 x [i=46, i=48, i=110]
2 x [i=47, i=71, i=84]
1 x [i=47, i=107]
1 x [i=48, i=53, i=103]
1 x [i=49, i=63, i=90]
1 x [i=50, i=86, i=88, i=108]
1 x [i=55, i=67, i=80]
1 x [i=55, i=82, i=89, i=106]
1 x [i=59, i=72, i=95, i=107]
1 x [i=69, i=83, i=94, i=105, i=112]
1 x [i=70, i=78, i=102, i=106, i=107]
1 x [i=70, i=85, i=98, i=102, i=107]
1 x [i=71, i=72, i=85, i=104]
1 x [i=75, i=80, i=81, i=96]
1 x [i=78, i=83, i=86, i=103, i=112]
